Gurobi 12.0.1:   lim:time = 28800
  mip:bestbound = 1
Set parameter LogToConsole to value 1
  tech:outlev = 1
Set parameter InfUnbdInfo to value 1
Gurobi Optimizer version 12.0.1 build v12.0.1rc0 (win64 - Windows 11.0 (22631.2))

CPU model: Intel(R) Core(TM) i7-10700 CPU @ 2.90GHz, instruction set [SSE2|AVX|AVX2]
Thread count: 8 physical cores, 16 logical processors, using up to 16 threads

Non-default parameters:
TimeLimit  28800
InfUnbdInfo  1

Optimize a model with 706 rows, 1918 columns and 12632 nonzeros
Model fingerprint: 0xa981bc56
Model has 7 quadratic constraints
Variable types: 26 continuous, 1892 integer (0 binary)
Coefficient statistics:
  Matrix range     [1e+00, 1e+05]
  QMatrix range    [1e+00, 2e+01]
  QLMatrix range   [1e+00, 2e+01]
  Objective range  [1e+01, 4e+02]
  Bounds range     [1e+00, 1e+00]
  RHS range        [1e+00, 1e+05]
  QRHS range       [7e+01, 1e+02]
Presolve removed 130 rows and 40 columns
Presolve time: 0.03s
Presolved: 1420 rows, 2634 columns, 13814 nonzeros
Variable types: 21 continuous, 2613 integer (2613 binary)

Root relaxation: objective 1.138940e+03, 175 iterations, 0.02 seconds (0.00 work units)

    Nodes    |    Current Node    |     Objective Bounds      |     Work
 Expl Unexpl |  Obj  Depth IntInf | Incumbent    BestBd   Gap | It/Node Time

     0     0 1138.94034    0   34          - 1138.94034      -     -    0s
H    0     0                    3508.6200000 1138.94034  67.5%     -    0s
     0     0 1189.26000    0   35 3508.62000 1189.26000  66.1%     -    0s
H    0     0                    3204.5100000 1189.26000  62.9%     -    0s
     0     0 1189.26000    0   35 3204.51000 1189.26000  62.9%     -    0s
     0     0 1191.60038    0   46 3204.51000 1191.60038  62.8%     -    0s
     0     0 1192.41286    0   57 3204.51000 1192.41286  62.8%     -    0s
     0     0 1196.28000    0   46 3204.51000 1196.28000  62.7%     -    0s
H    0     0                    2166.6000000 1196.28000  44.8%     -    0s
     0     0 1207.11000    0   63 2166.60000 1207.11000  44.3%     -    0s
H    0     0                    2026.3500000 1214.13000  40.1%     -    0s
     0     0 1214.13000    0   54 2026.35000 1214.13000  40.1%     -    0s
     0     0 1219.09500    0   48 2026.35000 1219.09500  39.8%     -    0s
H    0     0                    2017.8300000 1219.09500  39.6%     -    0s
     0     0 1219.09500    0   46 2017.83000 1219.09500  39.6%     -    0s
     0     0 1254.56871    0   59 2017.83000 1254.56871  37.8%     -    0s
     0     0 1271.35500    0   53 2017.83000 1271.35500  37.0%     -    0s
     0     0 1271.35500    0   53 2017.83000 1271.35500  37.0%     -    0s
     0     0 1271.35500    0   46 2017.83000 1271.35500  37.0%     -    0s
H    0     0                    1922.5200000 1271.35500  33.9%     -    0s
     0     0 1271.35500    0   42 1922.52000 1271.35500  33.9%     -    0s
     0     0 1271.35500    0   51 1922.52000 1271.35500  33.9%     -    0s
     0     0 1271.35500    0   63 1922.52000 1271.35500  33.9%     -    0s
     0     0 1271.35500    0   45 1922.52000 1271.35500  33.9%     -    0s
     0     0 1271.35500    0   42 1922.52000 1271.35500  33.9%     -    0s
     0     2 1273.68000    0   26 1922.52000 1273.68000  33.7%     -    0s
H   34    61                    1917.7200000 1283.46000  33.1%  32.9    1s
H   44    61                    1914.0000000 1283.46000  32.9%  27.5    1s
H  125   142                    1817.0400000 1283.46000  29.4%  16.6    1s
H  477   478                    1810.5600000 1286.65111  28.9%  11.3    1s
H 1499  1266                    1798.2900000 1286.66612  28.5%  11.2    2s
H 1756  1348                    1779.3900000 1286.66612  27.7%  11.6    2s
H 1770  1288                    1774.0500000 1286.66612  27.5%  11.5    3s
H 1774  1227                    1629.9900000 1286.66612  21.1%  11.5    3s
H 1774  1165                    1625.9100000 1286.66612  20.9%  11.5    3s
H 1774  1106                    1617.9000000 1286.66612  20.5%  11.5    3s
H 1774  1051                    1607.0400000 1286.66612  19.9%  11.5    3s
H 1776   999                    1597.2300000 1286.66612  19.4%  11.5    4s
H 1776   948                    1586.3700000 1286.66612  18.9%  11.5    4s
  1843  1010 1371.14953   18   51 1586.37000 1307.62446  17.6%  13.3    5s
H 2296  1109                    1574.3700000 1341.91006  14.8%  15.6    5s
H 2324  1054                    1521.7800000 1341.91006  11.8%  15.6    5s
H 6138  1338                    1502.1000000 1397.06428  6.99%  19.1    9s
  7248  1416 1485.90500   29   35 1502.10000 1408.84905  6.21%  19.9   10s
 11322  1370     cutoff   30      1502.10000 1445.99547  3.74%  20.5   15s
 16749   198 1492.48792   54   35 1502.10000 1478.23102  1.59%  19.4   20s

Cutting planes:
  Learned: 10
  Gomory: 11
  Cover: 21
  Implied bound: 37
  MIR: 6
  Mixing: 14
  StrongCG: 4
  Flow cover: 83
  GUB cover: 3
  Inf proof: 21
  Zero half: 1
  RLT: 89
  Relax-and-lift: 1

Explored 17945 nodes (341908 simplex iterations) in 21.20 seconds (7.12 work units)
Thread count was 16 (of 16 available processors)

Solution count 10: 1502.1 1521.78 1574.37 ... 1774.05

Optimal solution found (tolerance 1.00e-04)
Best objective 1.502100000000e+03, best bound 1.502100000000e+03, gap 0.0000%

AMPL MP initial flat model has 1918 variables (0 integer, 1892 binary);
Objectives: 1 linear; 
Constraints:  706 linear; 7 quadratic;

AMPL MP final model has 1918 variables (0 integer, 1892 binary);
Objectives: 1 linear; 
Constraints:  706 linear; 7 quadratic;


-----RESULTS INFO-----
running_time:  21.36
TC.best_bound:  1502.1
TC:  1502.1
MIP Gap (%):  0
=== Vehicle Routes ===
Vehicle 1: 0 → 6
Vehicle 1: 1 → 3
Vehicle 1: 3 → 4
Vehicle 1: 4 → 24
Vehicle 1: 5 → 7
Vehicle 1: 6 → 1
Vehicle 1: 7 → 0
Vehicle 1: 18 → 20
Vehicle 1: 20 → 21
Vehicle 1: 21 → 5
Vehicle 1: 24 → 18
Vehicle 2: 0 → 25
Vehicle 2: 8 → 0
Vehicle 2: 25 → 27
Vehicle 2: 27 → 8
Vehicle 3: 0 → 2
Vehicle 3: 2 → 0
Vehicle 4: 0 → 23
Vehicle 4: 23 → 0

=== Full Vehicle Routes ===
Vehicle 1: 0 → 6 → 1 → 3 → 4 → 24 → 18 → 20 → 21 → 5 → 7 → 0
Vehicle 2: 0 → 25 → 27 → 8 → 0
Vehicle 3: 0 → 2 → 0
Vehicle 4: 0 → 23 → 0
Customer assigment to PL: u variables:
9 27
10 23
11 25
12 25
13 24
14 27
15 23
16 24
17 23
19 24
22 23
Node is served by regular vehicle: g variables:
1
2
3
4
5
6
7
8
18
20
21
25
27
23
24
Customer assigment to Home delivery: gm variables:
1
2
3
4
5
6
7
8
18
20
21
Customer's demand delivered to PL: l variables:
9
10
11
12
13
14
15
16
17
19
22
